RT is False
Default write of storage_offers_DA.csv just to have a file (but constraint should be inactive)
Reading model...
...model read.
creating competitive generators file...
...competitive generators recorded.
Loading data...
.. day-ahead data with real-time VRE data read.
Compiling instance...
...instance created.
Creating Offer Mitigation (model will solve as dispatch if TRUE)...
NOTE: storage offers will not be mitigated
...storage offer mitigation file created
Converting model to MPEC...
...converted
NOTE: initial MIP solve with only storage competitive to get feasible solution
Solving...

Welcome to IBM(R) ILOG(R) CPLEX(R) Interactive Optimizer 12.9.0.0
  with Simplex, Mixed Integer & Barrier Optimizers
5725-A06 5725-A29 5724-Y48 5724-Y49 5724-Y54 5724-Y55 5655-Y21
Copyright IBM Corp. 1988, 2019.  All Rights Reserved.

Type 'help' for a list of available commands.
Type 'help' followed by a command name for more
information on commands.

CPLEX> Logfile 'cplex.log' closed.
Logfile 'C:\Users\Luke\Desktop\test919\logs\tmp8s014la7.cplex.log' open.
CPLEX> New value for parallel optimization mode: -1
CPLEX> New value for mixed integer optimality gap tolerance: 0.01
CPLEX> New value for integrality tolerance: 1e-09
CPLEX> New value for feasibility tolerance: 0.01
CPLEX> New value for deterministic time limit in ticks: 75000
CPLEX> Problem 'C:\Users\Luke\Desktop\test919\logs\tmp5zvghrnr.pyomo.lp' read.
Read time = 0.20 sec. (14.73 ticks)
CPLEX> Problem name         : C:\Users\Luke\Desktop\test919\logs\tmp5zvghrnr.pyomo.lp
Objective sense      : Maximize
Variables            :   53805  [Nneg: 1,  Box: 22000,  Free: 4464,
                                 Binary: 27340]
Objective nonzeros   :    9078
Linear constraints   :  123205  [Less: 41346,  Greater: 59096,  Equal: 22763]
  Nonzeros           :  291705
  RHS nonzeros       :   67491

Variables            : Min LB: -5000.000        Max UB: 1000000.       
Objective nonzeros   : Min   : 0.1083333        Max   : 2500.000       
Linear constraints   :
  Nonzeros           : Min   : 0.1083333        Max   : 1000000.       
  RHS nonzeros       : Min   : 0.1083333        Max   : 1000000.       
CPLEX> CPXPARAM_Parallel                                -1
CPXPARAM_Simplex_Tolerances_Feasibility          0.01
CPXPARAM_DetTimeLimit                            75000
CPXPARAM_MIP_Tolerances_MIPGap                   0.01
CPXPARAM_MIP_Tolerances_Integrality              1.0000000000000001e-09
Tried aggregator 3 times.
MIP Presolve eliminated 88681 rows and 19029 columns.
MIP Presolve added 3348 rows and 0 columns.
MIP Presolve modified 24877 coefficients.
Aggregator did 12953 substitutions.
Reduced MIP has 24919 rows, 21267 columns, and 71047 nonzeros.
Reduced MIP has 8416 binaries, 0 generals, 0 SOSs, and 0 indicators.
Presolve time = 0.23 sec. (173.41 ticks)
Probing fixed 385 vars, tightened 2859 bounds.
Probing time = 1.48 sec. (888.33 ticks)
Tried aggregator 2 times.
MIP Presolve eliminated 871 rows and 776 columns.
MIP Presolve modified 2235 coefficients.
Aggregator did 40 substitutions.
Reduced MIP has 24008 rows, 20451 columns, and 68409 nonzeros.
Reduced MIP has 8028 binaries, 0 generals, 0 SOSs, and 0 indicators.
Presolve time = 0.11 sec. (67.03 ticks)
Probing time = 0.03 sec. (15.78 ticks)
Clique table members: 6518.
MIP emphasis: balance optimality and feasibility.
MIP search method: dynamic search.
Parallel mode: opportunistic, using up to 24 threads.
Root relaxation solution time = 0.36 sec. (462.68 ticks)

        Nodes                                         Cuts/
   Node  Left     Objective  IInf  Best Integer    Best Bound    ItCnt     Gap

      0     0      -81.9162   659                    -81.9162     3313         
      0     5    -2859.7097    11                     Cuts: 5     3352         
Elapsed time = 6.98 sec. (4589.17 ticks, tree = 0.02 MB, solutions = 0)
    309   148     -870.7016     3                   -147.0246    13321         
*   478+  279                       -74828.5642     -147.0246            99.80%
*   564   277      integral     0    -9337.4234     -147.0246    19711   98.43%
    797   302    -1155.2383     1    -2094.0577     -147.0246    21050   92.98%
   1186   396     -453.1724     4    -2094.0577     -147.0246    22671   92.98%
   1671   619     -750.9291     4    -2094.0577     -147.0246    23973   92.98%
   2193   850    -1053.4636     5    -2094.0577     -147.0246    25105   92.98%
   2625  1344    -1057.8863     1    -2094.0577     -147.0246    27474   92.98%
   3112  1647    -1083.7973     4    -2094.0577     -208.4957    29412   90.04%
   3615  1797    -1843.7677     6    -2094.0577     -233.1815    30294   88.86%
   5646  3391     -726.2447     3    -2094.0577     -329.3020    39397   84.27%
Elapsed time = 15.48 sec. (7642.18 ticks, tree = 30.25 MB, solutions = 3)
   7443  4133     -990.5045     6    -2094.0577     -401.2619    44391   80.84%
   7664  4687        cutoff          -2094.0577     -401.8830    53953   80.81%
   8142    49     -912.6958     6    -2094.0577     -401.8830    55036   80.81%
   9486   293     -937.7959     7    -2094.0577     -401.8830    58640   80.81%
  11660  1114    -1628.9136     6    -2094.0577     -461.6159    68746   77.96%
  14155  2415     -889.0685     5    -2094.0577     -492.5071    81907   76.48%
  15019  3883    -1338.3449     5    -2094.0577     -640.2804    94135   69.42%
  17982  4628    -1780.2470     6    -2094.0577     -697.9646   100186   66.67%
  20979  8375     -845.9422     8    -2094.0577     -711.5264   127523   66.02%
  24156 10126     -885.9416     5    -2094.0577     -734.0450   139369   64.95%
Elapsed time = 45.70 sec. (19371.67 ticks, tree = 74.79 MB, solutions = 3)
  27148 10625    -1809.3276     7    -2094.0577     -767.8719   142695   63.33%
  29556 12624    -1204.5828     9    -2094.0577     -789.8304   156418   62.28%
  30730 14587    -1697.5490     9    -2094.0577     -808.9746   170533   61.37%
  33979 15211     -954.4714     4    -2094.0577     -808.9746   175368   61.37%
  37129 18833        cutoff          -2094.0577     -825.7280   201092   60.57%
  40105 19525    -1391.0841     5    -2094.0577     -841.6502   206380   59.81%
  43092 20561     -915.7436     6    -2094.0577     -846.7278   214176   59.57%
  45996 23279    -1710.7526     8    -2094.0577     -851.1264   236026   59.36%
  47524 24081    -1822.1810     4    -2094.0577     -857.2555   242528   59.06%
  48306 26594    -1255.5527     7    -2094.0577     -860.9493   261817   58.89%
Elapsed time = 72.64 sec. (28915.76 ticks, tree = 202.67 MB, solutions = 3)
  51139 27062    -1746.4196     5    -2094.0577     -860.9493   266216   58.89%
  53992 29738     -962.7717     4    -2094.0577     -862.2557   288070   58.82%
  56563 29794    -1649.3799    11    -2094.0577     -873.8441   288806   58.27%
  58761 31645    -1657.5240     7    -2094.0577     -873.8441   304000   58.27%
  59517 34303    infeasible          -2094.0577     -893.3365   329169   57.34%
  61002   681    -1180.5602     2    -2094.0577     -893.3365   350165   57.34%
  64324  1304    -1444.5376     7    -2094.0577    -1165.9979   381203   44.32%
  66937  1355        cutoff          -2094.0577    -1444.5376   435348   31.02%

Cover cuts applied:  2
Implied bound cuts applied:  5
Flow cuts applied:  6
Mixed integer rounding cuts applied:  6
Gomory fractional cuts applied:  1

Root node processing (before b&c):
  Real time             =    6.56 sec. (4556.69 ticks)
Parallel b&c, 24 threads:
  Real time             =   84.02 sec. (34546.03 ticks)
  Sync time (average)   =    1.82 sec.
  Wait time (average)   =    0.09 sec.
                          ------------
Total (root+branch&cut) =   90.58 sec. (39102.72 ticks)

Solution pool: 3 solutions saved.

MIP - Integer optimal solution:  Objective = -2.0940577137e+03
Solution time =   90.59 sec.  Iterations = 486556  Nodes = 68450
Deterministic time = 39102.87 ticks  (431.63 ticks/sec)

CPLEX> Incumbent solution written to file 'C:\Users\Luke\Desktop\test919\logs\tmprqyol9q4.cplex.sol'.
CPLEX> NOTE: no warmstart specified for MIP iteration, default behavior is true
NOTE: resolving with all competitive generators using storage-only solution to warmstart
Solving...

Welcome to IBM(R) ILOG(R) CPLEX(R) Interactive Optimizer 12.9.0.0
  with Simplex, Mixed Integer & Barrier Optimizers
5725-A06 5725-A29 5724-Y48 5724-Y49 5724-Y54 5724-Y55 5655-Y21
Copyright IBM Corp. 1988, 2019.  All Rights Reserved.

Type 'help' for a list of available commands.
Type 'help' followed by a command name for more
information on commands.

CPLEX> Logfile 'cplex.log' closed.
Logfile 'C:\Users\Luke\Desktop\test919\logs\tmpn6wjifqp.cplex.log' open.
CPLEX> New value for parallel optimization mode: -1
CPLEX> New value for mixed integer optimality gap tolerance: 0.01
CPLEX> New value for integrality tolerance: 1e-09
CPLEX> New value for feasibility tolerance: 0.01
CPLEX> New value for deterministic time limit in ticks: 75000
CPLEX> Problem 'C:\Users\Luke\Desktop\test919\logs\tmpdgoyps7i.pyomo.lp' read.
Read time = 0.20 sec. (14.75 ticks)
CPLEX> MIP start file 'C:\Users\Luke\Desktop\test919\logs\tmp145xc339.cplex.mst' read.
CPLEX> Problem name         : C:\Users\Luke\Desktop\test919\logs\tmpdgoyps7i.pyomo.lp
Objective sense      : Maximize
Variables            :   54525  [Nneg: 1,  Box: 22720,  Free: 4464,
                                 Binary: 27340]
Objective nonzeros   :    9798
Linear constraints   :  123205  [Less: 41346,  Greater: 59096,  Equal: 22763]
  Nonzeros           :  291705
  RHS nonzeros       :   67491

Variables            : Min LB: -5000.000        Max UB: 1000000.       
Objective nonzeros   : Min   : 0.1083333        Max   : 2500.000       
Linear constraints   :
  Nonzeros           : Min   : 0.1083333        Max   : 1000000.       
  RHS nonzeros       : Min   : 0.1083333        Max   : 1000000.       
CPLEX> CPXPARAM_Parallel                                -1
CPXPARAM_Simplex_Tolerances_Feasibility          0.01
CPXPARAM_DetTimeLimit                            75000
CPXPARAM_MIP_Tolerances_MIPGap                   0.01
CPXPARAM_MIP_Tolerances_Integrality              1.0000000000000001e-09
Warning:  No solution found from 1 MIP starts.
Retaining values of one MIP start for possible repair.
Tried aggregator 3 times.
MIP Presolve eliminated 88681 rows and 19749 columns.
MIP Presolve added 3348 rows and 0 columns.
MIP Presolve modified 24877 coefficients.
Aggregator did 12953 substitutions.
Reduced MIP has 24919 rows, 21267 columns, and 71047 nonzeros.
Reduced MIP has 8416 binaries, 0 generals, 0 SOSs, and 0 indicators.
Presolve time = 0.23 sec. (173.77 ticks)
Probing fixed 385 vars, tightened 2859 bounds.
Probing time = 1.45 sec. (888.33 ticks)
Tried aggregator 2 times.
MIP Presolve eliminated 871 rows and 776 columns.
MIP Presolve modified 2235 coefficients.
Aggregator did 40 substitutions.
Reduced MIP has 24008 rows, 20451 columns, and 68409 nonzeros.
Reduced MIP has 8028 binaries, 0 generals, 0 SOSs, and 0 indicators.
Presolve time = 0.11 sec. (67.03 ticks)
Probing time = 0.03 sec. (15.78 ticks)
Clique table members: 6518.
MIP emphasis: balance optimality and feasibility.
MIP search method: dynamic search.
Parallel mode: opportunistic, using up to 24 threads.
Root relaxation solution time = 0.36 sec. (462.68 ticks)

        Nodes                                         Cuts/
   Node  Left     Objective  IInf  Best Integer    Best Bound    ItCnt     Gap

      0     0      -81.9162   659                    -81.9162     3313         
Repair heuristic found nothing.
      0    15    infeasible                           Cuts: 4     4006         
Elapsed time = 7.11 sec. (4602.88 ticks, tree = 0.02 MB, solutions = 0)
    356    77     -200.3887     4                   -147.0246     7337         
*   522+  281                       -74828.5642     -147.0246            99.80%
    844   349        cutoff         -74828.5642     -147.0246    21643   99.80%
   1313   443     -830.5545     3    -2036.2291     -162.9493    22767   92.00%
   1707   624     -883.6009     5    -2036.2291     -196.3696    25660   90.36%
   2096   703     -854.5424     3    -1281.1443     -196.3696    26106   84.67%
   2471   780     -780.9284     4    -1281.1443     -212.2942    28279   83.43%
   2893   926     -964.8840     3    -1281.1443     -212.2942    29254   83.43%
   3354   928    -1239.2962     2    -1281.1443     -216.3134    29229   83.12%
   5147  1800        cutoff           -655.4493     -298.2899    34150   54.49%
Elapsed time = 15.08 sec. (7621.36 ticks, tree = 14.81 MB, solutions = 6)
   6396   352     -621.3676     6     -655.4493     -298.2899    40331   54.49%
   7048   326     -636.5136   226     -655.4493     -298.2899    47895   54.49%
   7527   357     -588.7742   109     -655.4493     -298.2899    48208   54.49%
   7702   515        cutoff           -655.4493     -298.2899    90057   54.49%

GUB cover cuts applied:  1
Cover cuts applied:  2
Implied bound cuts applied:  6
Flow cuts applied:  4
Mixed integer rounding cuts applied:  3
Gomory fractional cuts applied:  5

Root node processing (before b&c):
  Real time             =    6.73 sec. (4585.40 ticks)
Parallel b&c, 24 threads:
  Real time             =   17.31 sec. (9625.00 ticks)
  Sync time (average)   =    0.88 sec.
  Wait time (average)   =    0.02 sec.
                          ------------
Total (root+branch&cut) =   24.05 sec. (14210.41 ticks)

Solution pool: 6 solutions saved.

MIP - Integer optimal solution:  Objective = -6.5544932276e+02
Solution time =   24.06 sec.  Iterations = 90398  Nodes = 7773
Deterministic time = 14210.56 ticks  (590.56 ticks/sec)

CPLEX> Incumbent solution written to file 'C:\Users\Luke\Desktop\test919\logs\tmpb1pxb_i8.cplex.sol'.
CPLEX> Exporting results... 
